Traveling Salesman Problem/TSP_generados/Aleatorio1620391073_13.tsp
NAME: Aleatorio1620391073_13.tsp
COMMENT: Randomly generated scenario
TYPE: TSP
DIMENSION: 13
EDGE_WEIGHT_TYPE: ATT
NODE_COORD_SECTION
1 31.82 45.82
2 3.72 9.83
3 18.06 16.14
4 26.62 11.6
5 27.64 37.98
6 36.69 20.01
7 49.04 45.74
8 26.11 31.85
9 13.0 13.95
10 3.74 23.77
11 43.15 34.33
12 26.46 11.56
13 47.03 47.58
