Traveling Salesman Problem/TSP_generados/Aleatorio1620391073_13.opt.tour
NAME: Aleatorio1620391073_13.opt.tour
COMMENT: Optimal solution for Aleatorio1620391073_13 (138.03343319370617)
TYPE: TOUR
DIMENSION: 13
TOUR_SECTION
1 5 8 10 2 9 3 12 4 6 11 7 13
-1
EOF
